data/CVRPLIB/Vrp-Set-XML100/instances/XML100_1315_16.vrp
NAME : XML100_1315_16
COMMENT : Generated by Queiroga, Sadykov, Uchoa, and Vidal (2021)
TYPE : CVRP
DIMENSION : 101
EDGE_WEIGHT_TYPE : EUC_2D
CAPACITY : 22
NODE_COORD_SECTION
1    445  275 
2    460  180 
3    860  939 
4    967  614 
5    483  313 
6    637  387 
7    114  543 
8    874  536 
9    924  407 
10   274  777 
11   803  90  
12   665  163 
13   234  963 
14   767  412 
15   381  124 
16   219  820 
17   794  727 
18   432  643 
19   353  402 
20   6    173 
21   942  107 
22   217  895 
23   21   475 
24   406  199 
25   511  674 
26   318  722 
27   986  306 
28   686  50  
29   327  416 
30   241  189 
31   184  709 
32   625  152 
33   349  199 
34   223  249 
35   601  712 
36   735  608 
37   422  656 
38   402  769 
39   147  296 
40   257  784 
41   300  38  
42   732  322 
43   436  524 
44   593  382 
45   554  596 
46   978  436 
47   115  213 
48   437  825 
49   916  121 
50   520  887 
51   643  32  
52   463  597 
53   578  737 
54   304  379 
55   588  94  
56   358  59  
57   192  823 
58   998  425 
59   368  176 
60   707  428 
61   884  450 
62   390  350 
63   447  155 
64   236  321 
65   418  361 
66   973  431 
67   114  688 
68   434  85  
69   744  240 
70   792  364 
71   559  623 
72   398  725 
73   378  159 
74   581  975 
75   972  958 
76   591  818 
77   225  896 
78   360  0   
79   434  913 
80   945  567 
81   374  154 
82   949  430 
83   936  259 
84   759  176 
85   407  605 
86   400  61  
87   950  455 
88   997  394 
89   35   772 
90   392  654 
91   269  652 
92   212  822 
93   646  380 
94   287  389 
95   342  348 
96   521  697 
97   576  342 
98   571  16  
99   855  969 
100  903  401 
101  959  928 
DEMAND_SECTION
1    0   
2    1   
3    1   
4    1   
5    1   
6    1   
7    1   
8    1   
9    1   
10   1   
11   1   
12   1   
13   1   
14   1   
15   1   
16   1   
17   1   
18   1   
19   1   
20   1   
21   1   
22   1   
23   1   
24   1   
25   1   
26   1   
27   1   
28   1   
29   1   
30   1   
31   1   
32   1   
33   1   
34   1   
35   1   
36   1   
37   1   
38   1   
39   1   
40   1   
41   1   
42   1   
43   1   
44   1   
45   1   
46   1   
47   1   
48   1   
49   1   
50   1   
51   1   
52   1   
53   1   
54   1   
55   1   
56   1   
57   1   
58   1   
59   1   
60   1   
61   1   
62   1   
63   1   
64   1   
65   1   
66   1   
67   1   
68   1   
69   1   
70   1   
71   1   
72   1   
73   1   
74   1   
75   1   
76   1   
77   1   
78   1   
79   1   
80   1   
81   1   
82   1   
83   1   
84   1   
85   1   
86   1   
87   1   
88   1   
89   1   
90   1   
91   1   
92   1   
93   1   
94   1   
95   1   
96   1   
97   1   
98   1   
99   1   
100  1   
101  1   
DEPOT_SECTION
1
-1
EOF
