data/CVRPLIB/Vrp-Set-XML100/solutions/XML100_1315_16.sol
Route #1: 23 32 58 72 80 14 55 40 77 85 67 62 1
Route #2: 42 51 24 95 34 52 75 73 49 78 47 37 71 89 36 17 84 28 93 53 94 61
Route #3: 31 11 83 68 41 99 8 81 86 65 45 57 87 26 82 20 48 10 27 50 97 54
Route #4: 29 33 63 38 46 19 22 6 30 66 88 12 76 21 56 91 15 39 9 25 90 18
Route #5: 64 44 70 35 16 2 98 74 100 3 79 7 60 69 13 59 92 5 43 96 4
Cost 9178
